solution status: optimal solution found
objective value:                                    0
$_4_y                                              14 	(obj:0)
$_4_z                                              17 	(obj:0)
$_2_y                                              14 	(obj:0)
$_2_z                                              14 	(obj:0)
$_10_y                                             14 	(obj:0)
$_10_z                                              9 	(obj:0)
$_9_y                                              15 	(obj:0)
$_9_z                                               9 	(obj:0)
$_8_y                                              15 	(obj:0)
$_8_z                                              10 	(obj:0)
$_6_y                                              14 	(obj:0)
$_6_z                                              13 	(obj:0)
$_3_y                                              15 	(obj:0)
$_3_z                                              14 	(obj:0)
$_21_y                                             17 	(obj:0)
$_21_z                                             11 	(obj:0)
$_5_y                                              14 	(obj:0)
$_5_z                                              16 	(obj:0)
$_7_y                                              16 	(obj:0)
$_7_z                                              12 	(obj:0)
